sat
(
  (define-fun p18_x () Int
    10)
  (define-fun p12_h () Int
    4)
  (define-fun p12_w () Int
    4)
  (define-fun p4_x () Int
    4)
  (define-fun p9_x () Int
    37)
  (define-fun p3_y () Int
    16)
  (define-fun p5_y () Int
    16)
  (define-fun p12_y () Int
    36)
  (define-fun p11_y () Int
    0)
  (define-fun p9_w () Int
    3)
  (define-fun p6_w () Int
    3)
  (define-fun p3_h () Int
    5)
  (define-fun p8_x () Int
    4)
  (define-fun p15_w () Int
    5)
  (define-fun p16_h () Int
    4)
  (define-fun p14_w () Int
    4)
  (define-fun p15_h () Int
    3)
  (define-fun p15_x () Int
    10)
  (define-fun p17_h () Int
    8)
  (define-fun p3_x () Int
    37)
  (define-fun p5_w () Int
    3)
  (define-fun p14_y () Int
    0)
  (define-fun p2_h () Int
    4)
  (define-fun p20_x () Int
    15)
  (define-fun p17_w () Int
    5)
  (define-fun p18_h () Int
    12)
  (define-fun p4_y () Int
    10)
  (define-fun p19_h () Int
    13)
  (define-fun p12_x () Int
    0)
  (define-fun p2_w () Int
    3)
  (define-fun p13_y () Int
    22)
  (define-fun p17_x () Int
    10)
  (define-fun p10_x () Int
    37)
  (define-fun p10_y () Int
    21)
  (define-fun p15_y () Int
    4)
  (define-fun p18_y () Int
    28)
  (define-fun p19_x () Int
    10)
  (define-fun p13_h () Int
    14)
  (define-fun p3_w () Int
    3)
  (define-fun p16_y () Int
    0)
  (define-fun p2_x () Int
    37)
  (define-fun p2_y () Int
    0)
  (define-fun p4_h () Int
    6)
  (define-fun p9_h () Int
    12)
  (define-fun p7_x () Int
    4)
  (define-fun p8_y () Int
    0)
  (define-fun p18_w () Int
    5)
  (define-fun p4_w () Int
    3)
  (define-fun p7_y () Int
    23)
  (define-fun p16_x () Int
    10)
  (define-fun p16_w () Int
    5)
  (define-fun p5_h () Int
    7)
  (define-fun p1_x () Int
    37)
  (define-fun height () Int
    40)
  (define-fun p8_h () Int
    10)
  (define-fun width () Int
    40)
  (define-fun p6_y () Int
    32)
  (define-fun p9_y () Int
    4)
  (define-fun p1_w () Int
    3)
  (define-fun p7_w () Int
    3)
  (define-fun p7_h () Int
    9)
  (define-fun p14_x () Int
    0)
  (define-fun p6_x () Int
    4)
  (define-fun p5_x () Int
    4)
  (define-fun p20_h () Int
    40)
  (define-fun p19_w () Int
    5)
  (define-fun p20_y () Int
    0)
  (define-fun p17_y () Int
    7)
  (define-fun p13_w () Int
    4)
  (define-fun p10_w () Int
    3)
  (define-fun p1_y () Int
    37)
  (define-fun p1_h () Int
    3)
  (define-fun p8_w () Int
    3)
  (define-fun p13_x () Int
    0)
  (define-fun p14_h () Int
    22)
  (define-fun p20_w () Int
    22)
  (define-fun p10_h () Int
    16)
  (define-fun p11_w () Int
    3)
  (define-fun p11_x () Int
    7)
  (define-fun p19_y () Int
    15)
  (define-fun p11_h () Int
    40)
  (define-fun p6_h () Int
    8)
)
